rc101_2
0 85 96 61 69 71 104 57 62 91 79 70 95 21 20 18 15 16 52 78 17 22 65 60 75 73 66 86 11 12 84 83 58 103 74 87 105 9 50 10 6 8 13 51 7 93 27 54 25 29 23 28 53 26 30 68 90 56 89 55 39 33 34 36 37 38 94 80 102 92 64 14 19 1 49 46 77 59 99 101 48 47 44 42 43 40 41 45 76 72 67 100 88 24 81 98 97 31 32 35 63 82 5 0